$ LBS instance with n = 49, seed = 9549656
letting cards be [6,26,17,31,18,33,21,24,41,46,42,0,7,3,43,27,15,51,32,10,40,20,8,36,16,50,49,25,5,19,23,22,37,29,30,45,39,2,28,1,34,12,47,44,13,38,4,48,35]
